20J6M/DAT/20J6MNLL-13.dat
20 6
20.189 20.189
21.7079 21.7079
20.6334 20.6334
29.8301 29.8301
25.9581 25.9581
21.3792 21.3792
25.6996 25.6996
27.579 27.579
18.8469 18.8469
25.6919 25.6919
23.3164 23.3164
19.2024 19.2024
23.3281 23.3281
19.9202 19.9202
29.8857 29.8857
22.0591 22.0591
32.473 32.473
28.0711 28.0711
27.5755 27.5755
16.1483 16.1483
79.9158