20J6M/SOL/20J6MNLL-13.sol
solution status: optimal solution found
objective value:                     79.9157999999999
x#1#1                               0.712813908564072 	(obj:0)
x#1#3                               0.287186091435928 	(obj:0)
x#2#4                                               1 	(obj:0)
x#3#1                                               1 	(obj:0)
x#4#1                                               1 	(obj:0)
x#5#5                                               1 	(obj:0)
x#6#4                                               1 	(obj:0)
x#7#2                                               1 	(obj:0)
x#8#6                                               1 	(obj:0)
x#9#3                                               1 	(obj:0)
x#10#5                                              1 	(obj:0)
x#11#2                              0.366557444545472 	(obj:0)
x#11#4                              0.633442555454528 	(obj:0)
x#12#3                                              1 	(obj:0)
x#13#2                                              1 	(obj:0)
x#14#3                                              1 	(obj:0)
x#15#1                              0.503963434016936 	(obj:0)
x#15#5                              0.496036565983064 	(obj:0)
x#16#4                                              1 	(obj:0)
x#17#2                              0.252739198718929 	(obj:0)
x#17#6                              0.747257721799647 	(obj:0)
x#18#6                                              1 	(obj:0)
x#19#2                              0.512560062374213 	(obj:0)
x#19#5                              0.487439937625787 	(obj:0)
x#20#3                                              1 	(obj:0)
z                                    79.9157999999999 	(obj:1)
